c File: flat200_3_0.col
c
c SOURCE: Joseph Culberson (joe@cs.ualberta.ca)
c DESCRIPTION: Quasi-random coloring problem
c              generated with flatness = 0
c                             probability = 0.036
c                             known coloring = 3
c                             random seed = 1055
c              Creation Date:  Wed Feb 24 10:39:59 1999
c Maximum degree = 8 Minimum degree = 1
c COLOR VERIFICATION: Using the permuted order
c under simple greedy yields the specified
c coloring number
c Color = 3 specified partitions = 3
c p edge 200 479
c cnf created by edge2cnf
p cnf 600 2237
-1 -2 0
-1 -3 0
-2 -3 0
1 2 3 0
-4 -5 0
-4 -6 0
-5 -6 0
4 5 6 0
-7 -8 0
-7 -9 0
-8 -9 0
7 8 9 0
-10 -11 0
-10 -12 0
-11 -12 0
10 11 12 0
-13 -14 0
-13 -15 0
-14 -15 0
13 14 15 0
-16 -17 0
-16 -18 0
-17 -18 0
16 17 18 0
-19 -20 0
-19 -21 0
-20 -21 0
19 20 21 0
-22 -23 0
-22 -24 0
-23 -24 0
22 23 24 0
-25 -26 0
-25 -27 0
-26 -27 0
25 26 27 0
-28 -29 0
-28 -30 0
-29 -30 0
28 29 30 0
-31 -32 0
-31 -33 0
-32 -33 0
31 32 33 0
-34 -35 0
-34 -36 0
-35 -36 0
34 35 36 0
-37 -38 0
-37 -39 0
-38 -39 0
37 38 39 0
-40 -41 0
-40 -42 0
-41 -42 0
40 41 42 0
-43 -44 0
-43 -45 0
-44 -45 0
43 44 45 0
-46 -47 0
-46 -48 0
-47 -48 0
46 47 48 0
-49 -50 0
-49 -51 0
-50 -51 0
49 50 51 0
-52 -53 0
-52 -54 0
-53 -54 0
52 53 54 0
-55 -56 0
-55 -57 0
-56 -57 0
55 56 57 0
-58 -59 0
-58 -60 0
-59 -60 0
58 59 60 0
-61 -62 0
-61 -63 0
-62 -63 0
61 62 63 0
-64 -65 0
-64 -66 0
-65 -66 0
64 65 66 0
-67 -68 0
-67 -69 0
-68 -69 0
67 68 69 0
-70 -71 0
-70 -72 0
-71 -72 0
70 71 72 0
-73 -74 0
-73 -75 0
-74 -75 0
73 74 75 0
-76 -77 0
-76 -78 0
-77 -78 0
76 77 78 0
-79 -80 0
-79 -81 0
-80 -81 0
79 80 81 0
-82 -83 0
-82 -84 0
-83 -84 0
82 83 84 0
-85 -86 0
-85 -87 0
-86 -87 0
85 86 87 0
-88 -89 0
-88 -90 0
-89 -90 0
88 89 90 0
-91 -92 0
-91 -93 0
-92 -93 0
91 92 93 0
-94 -95 0
-94 -96 0
-95 -96 0
94 95 96 0
-97 -98 0
-97 -99 0
-98 -99 0
97 98 99 0
-100 -101 0
-100 -102 0
-101 -102 0
100 101 102 0
-103 -104 0
-103 -105 0
-104 -105 0
103 104 105 0
-106 -107 0
-106 -108 0
-107 -108 0
106 107 108 0
-109 -110 0
-109 -111 0
-110 -111 0
109 110 111 0
-112 -113 0
-112 -114 0
-113 -114 0
112 113 114 0
-115 -116 0
-115 -117 0
-116 -117 0
115 116 117 0
-118 -119 0
-118 -120 0
-119 -120 0
118 119 120 0
-121 -122 0
-121 -123 0
-122 -123 0
121 122 123 0
-124 -125 0
-124 -126 0
-125 -126 0
124 125 126 0
-127 -128 0
-127 -129 0
-128 -129 0
127 128 129 0
-130 -131 0
-130 -132 0
-131 -132 0
130 131 132 0
-133 -134 0
-133 -135 0
-134 -135 0
133 134 135 0
-136 -137 0
-136 -138 0
-137 -138 0
136 137 138 0
-139 -140 0
-139 -141 0
-140 -141 0
139 140 141 0
-142 -143 0
-142 -144 0
-143 -144 0
142 143 144 0
-145 -146 0
-145 -147 0
-146 -147 0
145 146 147 0
-148 -149 0
-148 -150 0
-149 -150 0
148 149 150 0
-151 -152 0
-151 -153 0
-152 -153 0
151 152 153 0
-154 -155 0
-154 -156 0
-155 -156 0
154 155 156 0
-157 -158 0
-157 -159 0
-158 -159 0
157 158 159 0
-160 -161 0
-160 -162 0
-161 -162 0
160 161 162 0
-163 -164 0
-163 -165 0
-164 -165 0
163 164 165 0
-166 -167 0
-166 -168 0
-167 -168 0
166 167 168 0
-169 -170 0
-169 -171 0
-170 -171 0
169 170 171 0
-172 -173 0
-172 -174 0
-173 -174 0
172 173 174 0
-175 -176 0
-175 -177 0
-176 -177 0
175 176 177 0
-178 -179 0
-178 -180 0
-179 -180 0
178 179 180 0
-181 -182 0
-181 -183 0
-182 -183 0
181 182 183 0
-184 -185 0
-184 -186 0
-185 -186 0
184 185 186 0
-187 -188 0
-187 -189 0
-188 -189 0
187 188 189 0
-190 -191 0
-190 -192 0
-191 -192 0
190 191 192 0
-193 -194 0
-193 -195 0
-194 -195 0
193 194 195 0
-196 -197 0
-196 -198 0
-197 -198 0
196 197 198 0
-199 -200 0
-199 -201 0
-200 -201 0
199 200 201 0
-202 -203 0
-202 -204 0
-203 -204 0
202 203 204 0
-205 -206 0
-205 -207 0
-206 -207 0
205 206 207 0
-208 -209 0
-208 -210 0
-209 -210 0
208 209 210 0
-211 -212 0
-211 -213 0
-212 -213 0
211 212 213 0
-214 -215 0
-214 -216 0
-215 -216 0
214 215 216 0
-217 -218 0
-217 -219 0
-218 -219 0
217 218 219 0
-220 -221 0
-220 -222 0
-221 -222 0
220 221 222 0
-223 -224 0
-223 -225 0
-224 -225 0
223 224 225 0
-226 -227 0
-226 -228 0
-227 -228 0
226 227 228 0
-229 -230 0
-229 -231 0
-230 -231 0
229 230 231 0
-232 -233 0
-232 -234 0
-233 -234 0
232 233 234 0
-235 -236 0
-235 -237 0
-236 -237 0
235 236 237 0
-238 -239 0
-238 -240 0
-239 -240 0
238 239 240 0
-241 -242 0
-241 -243 0
-242 -243 0
241 242 243 0
-244 -245 0
-244 -246 0
-245 -246 0
244 245 246 0
-247 -248 0
-247 -249 0
-248 -249 0
247 248 249 0
-250 -251 0
-250 -252 0
-251 -252 0
250 251 252 0
-253 -254 0
-253 -255 0
-254 -255 0
253 254 255 0
-256 -257 0
-256 -258 0
-257 -258 0
256 257 258 0
-259 -260 0
-259 -261 0
-260 -261 0
259 260 261 0
-262 -263 0
-262 -264 0
-263 -264 0
262 263 264 0
-265 -266 0
-265 -267 0
-266 -267 0
265 266 267 0
-268 -269 0
-268 -270 0
-269 -270 0
268 269 270 0
-271 -272 0
-271 -273 0
-272 -273 0
271 272 273 0
-274 -275 0
-274 -276 0
-275 -276 0
274 275 276 0
-277 -278 0
-277 -279 0
-278 -279 0
277 278 279 0
-280 -281 0
-280 -282 0
-281 -282 0
280 281 282 0
-283 -284 0
-283 -285 0
-284 -285 0
283 284 285 0
-286 -287 0
-286 -288 0
-287 -288 0
286 287 288 0
-289 -290 0
-289 -291 0
-290 -291 0
289 290 291 0
-292 -293 0
-292 -294 0
-293 -294 0
292 293 294 0
-295 -296 0
-295 -297 0
-296 -297 0
295 296 297 0
-298 -299 0
-298 -300 0
-299 -300 0
298 299 300 0
-301 -302 0
-301 -303 0
-302 -303 0
301 302 303 0
-304 -305 0
-304 -306 0
-305 -306 0
304 305 306 0
-307 -308 0
-307 -309 0
-308 -309 0
307 308 309 0
-310 -311 0
-310 -312 0
-311 -312 0
310 311 312 0
-313 -314 0
-313 -315 0
-314 -315 0
313 314 315 0
-316 -317 0
-316 -318 0
-317 -318 0
316 317 318 0
-319 -320 0
-319 -321 0
-320 -321 0
319 320 321 0
-322 -323 0
-322 -324 0
-323 -324 0
322 323 324 0
-325 -326 0
-325 -327 0
-326 -327 0
325 326 327 0
-328 -329 0
-328 -330 0
-329 -330 0
328 329 330 0
-331 -332 0
-331 -333 0
-332 -333 0
331 332 333 0
-334 -335 0
-334 -336 0
-335 -336 0
334 335 336 0
-337 -338 0
-337 -339 0
-338 -339 0
337 338 339 0
-340 -341 0
-340 -342 0
-341 -342 0
340 341 342 0
-343 -344 0
-343 -345 0
-344 -345 0
343 344 345 0
-346 -347 0
-346 -348 0
-347 -348 0
346 347 348 0
-349 -350 0
-349 -351 0
-350 -351 0
349 350 351 0
-352 -353 0
-352 -354 0
-353 -354 0
352 353 354 0
-355 -356 0
-355 -357 0
-356 -357 0
355 356 357 0
-358 -359 0
-358 -360 0
-359 -360 0
358 359 360 0
-361 -362 0
-361 -363 0
-362 -363 0
361 362 363 0
-364 -365 0
-364 -366 0
-365 -366 0
364 365 366 0
-367 -368 0
-367 -369 0
-368 -369 0
367 368 369 0
-370 -371 0
-370 -372 0
-371 -372 0
370 371 372 0
-373 -374 0
-373 -375 0
-374 -375 0
373 374 375 0
-376 -377 0
-376 -378 0
-377 -378 0
376 377 378 0
-379 -380 0
-379 -381 0
-380 -381 0
379 380 381 0
-382 -383 0
-382 -384 0
-383 -384 0
382 383 384 0
-385 -386 0
-385 -387 0
-386 -387 0
385 386 387 0
-388 -389 0
-388 -390 0
-389 -390 0
388 389 390 0
-391 -392 0
-391 -393 0
-392 -393 0
391 392 393 0
-394 -395 0
-394 -396 0
-395 -396 0
394 395 396 0
-397 -398 0
-397 -399 0
-398 -399 0
397 398 399 0
-400 -401 0
-400 -402 0
-401 -402 0
400 401 402 0
-403 -404 0
-403 -405 0
-404 -405 0
403 404 405 0
-406 -407 0
-406 -408 0
-407 -408 0
406 407 408 0
-409 -410 0
-409 -411 0
-410 -411 0
409 410 411 0
-412 -413 0
-412 -414 0
-413 -414 0
412 413 414 0
-415 -416 0
-415 -417 0
-416 -417 0
415 416 417 0
-418 -419 0
-418 -420 0
-419 -420 0
418 419 420 0
-421 -422 0
-421 -423 0
-422 -423 0
421 422 423 0
-424 -425 0
-424 -426 0
-425 -426 0
424 425 426 0
-427 -428 0
-427 -429 0
-428 -429 0
427 428 429 0
-430 -431 0
-430 -432 0
-431 -432 0
430 431 432 0
-433 -434 0
-433 -435 0
-434 -435 0
433 434 435 0
-436 -437 0
-436 -438 0
-437 -438 0
436 437 438 0
-439 -440 0
-439 -441 0
-440 -441 0
439 440 441 0
-442 -443 0
-442 -444 0
-443 -444 0
442 443 444 0
-445 -446 0
-445 -447 0
-446 -447 0
445 446 447 0
-448 -449 0
-448 -450 0
-449 -450 0
448 449 450 0
-451 -452 0
-451 -453 0
-452 -453 0
451 452 453 0
-454 -455 0
-454 -456 0
-455 -456 0
454 455 456 0
-457 -458 0
-457 -459 0
-458 -459 0
457 458 459 0
-460 -461 0
-460 -462 0
-461 -462 0
460 461 462 0
-463 -464 0
-463 -465 0
-464 -465 0
463 464 465 0
-466 -467 0
-466 -468 0
-467 -468 0
466 467 468 0
-469 -470 0
-469 -471 0
-470 -471 0
469 470 471 0
-472 -473 0
-472 -474 0
-473 -474 0
472 473 474 0
-475 -476 0
-475 -477 0
-476 -477 0
475 476 477 0
-478 -479 0
-478 -480 0
-479 -480 0
478 479 480 0
-481 -482 0
-481 -483 0
-482 -483 0
481 482 483 0
-484 -485 0
-484 -486 0
-485 -486 0
484 485 486 0
-487 -488 0
-487 -489 0
-488 -489 0
487 488 489 0
-490 -491 0
-490 -492 0
-491 -492 0
490 491 492 0
-493 -494 0
-493 -495 0
-494 -495 0
493 494 495 0
-496 -497 0
-496 -498 0
-497 -498 0
496 497 498 0
-499 -500 0
-499 -501 0
-500 -501 0
499 500 501 0
-502 -503 0
-502 -504 0
-503 -504 0
502 503 504 0
-505 -506 0
-505 -507 0
-506 -507 0
505 506 507 0
-508 -509 0
-508 -510 0
-509 -510 0
508 509 510 0
-511 -512 0
-511 -513 0
-512 -513 0
511 512 513 0
-514 -515 0
-514 -516 0
-515 -516 0
514 515 516 0
-517 -518 0
-517 -519 0
-518 -519 0
517 518 519 0
-520 -521 0
-520 -522 0
-521 -522 0
520 521 522 0
-523 -524 0
-523 -525 0
-524 -525 0
523 524 525 0
-526 -527 0
-526 -528 0
-527 -528 0
526 527 528 0
-529 -530 0
-529 -531 0
-530 -531 0
529 530 531 0
-532 -533 0
-532 -534 0
-533 -534 0
532 533 534 0
-535 -536 0
-535 -537 0
-536 -537 0
535 536 537 0
-538 -539 0
-538 -540 0
-539 -540 0
538 539 540 0
-541 -542 0
-541 -543 0
-542 -543 0
541 542 543 0
-544 -545 0
-544 -546 0
-545 -546 0
544 545 546 0
-547 -548 0
-547 -549 0
-548 -549 0
547 548 549 0
-550 -551 0
-550 -552 0
-551 -552 0
550 551 552 0
-553 -554 0
-553 -555 0
-554 -555 0
553 554 555 0
-556 -557 0
-556 -558 0
-557 -558 0
556 557 558 0
-559 -560 0
-559 -561 0
-560 -561 0
559 560 561 0
-562 -563 0
-562 -564 0
-563 -564 0
562 563 564 0
-565 -566 0
-565 -567 0
-566 -567 0
565 566 567 0
-568 -569 0
-568 -570 0
-569 -570 0
568 569 570 0
-571 -572 0
-571 -573 0
-572 -573 0
571 572 573 0
-574 -575 0
-574 -576 0
-575 -576 0
574 575 576 0
-577 -578 0
-577 -579 0
-578 -579 0
577 578 579 0
-580 -581 0
-580 -582 0
-581 -582 0
580 581 582 0
-583 -584 0
-583 -585 0
-584 -585 0
583 584 585 0
-586 -587 0
-586 -588 0
-587 -588 0
586 587 588 0
-589 -590 0
-589 -591 0
-590 -591 0
589 590 591 0
-592 -593 0
-592 -594 0
-593 -594 0
592 593 594 0
-595 -596 0
-595 -597 0
-596 -597 0
595 596 597 0
-598 -599 0
-598 -600 0
-599 -600 0
598 599 600 0
-19 -1 0
-20 -2 0
-21 -3 0
-553 -1 0
-554 -2 0
-555 -3 0
-49 -4 0
-50 -5 0
-51 -6 0
-214 -4 0
-215 -5 0
-216 -6 0
-283 -4 0
-284 -5 0
-285 -6 0
-418 -4 0
-419 -5 0
-420 -6 0
-544 -4 0
-545 -5 0
-546 -6 0
-304 -7 0
-305 -8 0
-306 -9 0
-499 -7 0
-500 -8 0
-501 -9 0
-568 -7 0
-569 -8 0
-570 -9 0
-118 -10 0
-119 -11 0
-120 -12 0
-139 -10 0
-140 -11 0
-141 -12 0
-187 -10 0
-188 -11 0
-189 -12 0
-424 -10 0
-425 -11 0
-426 -12 0
-544 -10 0
-545 -11 0
-546 -12 0
-22 -13 0
-23 -14 0
-24 -15 0
-364 -13 0
-365 -14 0
-366 -15 0
-538 -13 0
-539 -14 0
-540 -15 0
-256 -16 0
-257 -17 0
-258 -18 0
-322 -16 0
-323 -17 0
-324 -18 0
-328 -16 0
-329 -17 0
-330 -18 0
-385 -16 0
-386 -17 0
-387 -18 0
-79 -19 0
-80 -20 0
-81 -21 0
-289 -19 0
-290 -20 0
-291 -21 0
-391 -19 0
-392 -20 0
-393 -21 0
-379 -22 0
-380 -23 0
-381 -24 0
-463 -22 0
-464 -23 0
-465 -24 0
-214 -25 0
-215 -26 0
-216 -27 0
-424 -25 0
-425 -26 0
-426 -27 0
-571 -25 0
-572 -26 0
-573 -27 0
-196 -28 0
-197 -29 0
-198 -30 0
-214 -31 0
-215 -32 0
-216 -33 0
-235 -31 0
-236 -32 0
-237 -33 0
-310 -31 0
-311 -32 0
-312 -33 0
-490 -31 0
-491 -32 0
-492 -33 0
-412 -34 0
-413 -35 0
-414 -36 0
-469 -34 0
-470 -35 0
-471 -36 0
-496 -34 0
-497 -35 0
-498 -36 0
-547 -34 0
-548 -35 0
-549 -36 0
-586 -34 0
-587 -35 0
-588 -36 0
-598 -34 0
-599 -35 0
-600 -36 0
-70 -37 0
-71 -38 0
-72 -39 0
-97 -37 0
-98 -38 0
-99 -39 0
-145 -37 0
-146 -38 0
-147 -39 0
-238 -37 0
-239 -38 0
-240 -39 0
-340 -37 0
-341 -38 0
-342 -39 0
-145 -40 0
-146 -41 0
-147 -42 0
-175 -40 0
-176 -41 0
-177 -42 0
-205 -40 0
-206 -41 0
-207 -42 0
-241 -40 0
-242 -41 0
-243 -42 0
-244 -40 0
-245 -41 0
-246 -42 0
-328 -40 0
-329 -41 0
-330 -42 0
-439 -40 0
-440 -41 0
-441 -42 0
-526 -40 0
-527 -41 0
-528 -42 0
-220 -43 0
-221 -44 0
-222 -45 0
-247 -43 0
-248 -44 0
-249 -45 0
-346 -43 0
-347 -44 0
-348 -45 0
-61 -46 0
-62 -47 0
-63 -48 0
-268 -46 0
-269 -47 0
-270 -48 0
-487 -46 0
-488 -47 0
-489 -48 0
-580 -46 0
-581 -47 0
-582 -48 0
-73 -49 0
-74 -50 0
-75 -51 0
-88 -49 0
-89 -50 0
-90 -51 0
-523 -49 0
-524 -50 0
-525 -51 0
-577 -49 0
-578 -50 0
-579 -51 0
-130 -52 0
-131 -53 0
-132 -54 0
-217 -52 0
-218 -53 0
-219 -54 0
-226 -52 0
-227 -53 0
-228 -54 0
-250 -52 0
-251 -53 0
-252 -54 0
-268 -52 0
-269 -53 0
-270 -54 0
-385 -52 0
-386 -53 0
-387 -54 0
-370 -55 0
-371 -56 0
-372 -57 0
-400 -55 0
-401 -56 0
-402 -57 0
-430 -55 0
-431 -56 0
-432 -57 0
-475 -55 0
-476 -56 0
-477 -57 0
-595 -55 0
-596 -56 0
-597 -57 0
-88 -58 0
-89 -59 0
-90 -60 0
-274 -58 0
-275 -59 0
-276 -60 0
-388 -58 0
-389 -59 0
-390 -60 0
-400 -58 0
-401 -59 0
-402 -60 0
-208 -61 0
-209 -62 0
-210 -63 0
-355 -61 0
-356 -62 0
-357 -63 0
-388 -61 0
-389 -62 0
-390 -63 0
-418 -61 0
-419 -62 0
-420 -63 0
-223 -64 0
-224 -65 0
-225 -66 0
-355 -64 0
-356 -65 0
-357 -66 0
-364 -64 0
-365 -65 0
-366 -66 0
-397 -64 0
-398 -65 0
-399 -66 0
-121 -67 0
-122 -68 0
-123 -69 0
-130 -67 0
-131 -68 0
-132 -69 0
-310 -67 0
-311 -68 0
-312 -69 0
-343 -67 0
-344 -68 0
-345 -69 0
-403 -67 0
-404 -68 0
-405 -69 0
-139 -70 0
-140 -71 0
-141 -72 0
-157 -70 0
-158 -71 0
-159 -72 0
-430 -70 0
-431 -71 0
-432 -72 0
-304 -73 0
-305 -74 0
-306 -75 0
-334 -73 0
-335 -74 0
-336 -75 0
-379 -73 0
-380 -74 0
-381 -75 0
-382 -73 0
-383 -74 0
-384 -75 0
-544 -73 0
-545 -74 0
-546 -75 0
-94 -76 0
-95 -77 0
-96 -78 0
-106 -76 0
-107 -77 0
-108 -78 0
-283 -76 0
-284 -77 0
-285 -78 0
-286 -76 0
-287 -77 0
-288 -78 0
-577 -76 0
-578 -77 0
-579 -78 0
-475 -79 0
-476 -80 0
-477 -81 0
-250 -82 0
-251 -83 0
-252 -84 0
-373 -82 0
-374 -83 0
-375 -84 0
-442 -82 0
-443 -83 0
-444 -84 0
-190 -85 0
-191 -86 0
-192 -87 0
-250 -85 0
-251 -86 0
-252 -87 0
-325 -85 0
-326 -86 0
-327 -87 0
-568 -85 0
-569 -86 0
-570 -87 0
-193 -88 0
-194 -89 0
-195 -90 0
-331 -88 0
-332 -89 0
-333 -90 0
-346 -88 0
-347 -89 0
-348 -90 0
-448 -88 0
-449 -89 0
-450 -90 0
-484 -88 0
-485 -89 0
-486 -90 0
-235 -91 0
-236 -92 0
-237 -93 0
-334 -91 0
-335 -92 0
-336 -93 0
-478 -91 0
-479 -92 0
-480 -93 0
-217 -94 0
-218 -95 0
-219 -96 0
-340 -94 0
-341 -95 0
-342 -96 0
-520 -94 0
-521 -95 0
-522 -96 0
-232 -97 0
-233 -98 0
-234 -99 0
-322 -97 0
-323 -98 0
-324 -99 0
-331 -97 0
-332 -98 0
-333 -99 0
-346 -97 0
-347 -98 0
-348 -99 0
-373 -97 0
-374 -98 0
-375 -99 0
-175 -100 0
-176 -101 0
-177 -102 0
-220 -100 0
-221 -101 0
-222 -102 0
-289 -100 0
-290 -101 0
-291 -102 0
-511 -100 0
-512 -101 0
-513 -102 0
-136 -103 0
-137 -104 0
-138 -105 0
-193 -103 0
-194 -104 0
-195 -105 0
-298 -103 0
-299 -104 0
-300 -105 0
-391 -103 0
-392 -104 0
-393 -105 0
-427 -103 0
-428 -104 0
-429 -105 0
-469 -103 0
-470 -104 0
-471 -105 0
-148 -106 0
-149 -107 0
-150 -108 0
-163 -106 0
-164 -107 0
-165 -108 0
-166 -106 0
-167 -107 0
-168 -108 0
-208 -106 0
-209 -107 0
-210 -108 0
-430 -106 0
-431 -107 0
-432 -108 0
-559 -106 0
-560 -107 0
-561 -108 0
-250 -109 0
-251 -110 0
-252 -111 0
-385 -109 0
-386 -110 0
-387 -111 0
-487 -109 0
-488 -110 0
-489 -111 0
-505 -109 0
-506 -110 0
-507 -111 0
-598 -109 0
-599 -110 0
-600 -111 0
-145 -112 0
-146 -113 0
-147 -114 0
-265 -112 0
-266 -113 0
-267 -114 0
-268 -115 0
-269 -116 0
-270 -117 0
-283 -115 0
-284 -116 0
-285 -117 0
-349 -115 0
-350 -116 0
-351 -117 0
-409 -115 0
-410 -116 0
-411 -117 0
-142 -118 0
-143 -119 0
-144 -120 0
-253 -118 0
-254 -119 0
-255 -120 0
-316 -118 0
-317 -119 0
-318 -120 0
-475 -118 0
-476 -119 0
-477 -120 0
-526 -118 0
-527 -119 0
-528 -120 0
-556 -118 0
-557 -119 0
-558 -120 0
-412 -121 0
-413 -122 0
-414 -123 0
-430 -121 0
-431 -122 0
-432 -123 0
-553 -121 0
-554 -122 0
-555 -123 0
-541 -124 0
-542 -125 0
-543 -126 0
-418 -127 0
-419 -128 0
-420 -129 0
-292 -130 0
-293 -131 0
-294 -132 0
-397 -130 0
-398 -131 0
-399 -132 0
-556 -130 0
-557 -131 0
-558 -132 0
-229 -133 0
-230 -134 0
-231 -135 0
-292 -133 0
-293 -134 0
-294 -135 0
-304 -133 0
-305 -134 0
-306 -135 0
-313 -133 0
-314 -134 0
-315 -135 0
-154 -136 0
-155 -137 0
-156 -138 0
-184 -136 0
-185 -137 0
-186 -138 0
-373 -136 0
-374 -137 0
-375 -138 0
-415 -136 0
-416 -137 0
-417 -138 0
-169 -139 0
-170 -140 0
-171 -141 0
-175 -139 0
-176 -140 0
-177 -141 0
-436 -139 0
-437 -140 0
-438 -141 0
-553 -139 0
-554 -140 0
-555 -141 0
-205 -142 0
-206 -143 0
-207 -144 0
-268 -142 0
-269 -143 0
-270 -144 0
-376 -142 0
-377 -143 0
-378 -144 0
-427 -142 0
-428 -143 0
-429 -144 0
-430 -142 0
-431 -143 0
-432 -144 0
-151 -145 0
-152 -146 0
-153 -147 0
-163 -145 0
-164 -146 0
-165 -147 0
-208 -145 0
-209 -146 0
-210 -147 0
-487 -145 0
-488 -146 0
-489 -147 0
-175 -148 0
-176 -149 0
-177 -150 0
-202 -148 0
-203 -149 0
-204 -150 0
-331 -148 0
-332 -149 0
-333 -150 0
-337 -148 0
-338 -149 0
-339 -150 0
-481 -148 0
-482 -149 0
-483 -150 0
-598 -148 0
-599 -149 0
-600 -150 0
-460 -151 0
-461 -152 0
-462 -153 0
-481 -151 0
-482 -152 0
-483 -153 0
-565 -151 0
-566 -152 0
-567 -153 0
-595 -151 0
-596 -152 0
-597 -153 0
-247 -154 0
-248 -155 0
-249 -156 0
-349 -154 0
-350 -155 0
-351 -156 0
-352 -154 0
-353 -155 0
-354 -156 0
-400 -154 0
-401 -155 0
-402 -156 0
-595 -154 0
-596 -155 0
-597 -156 0
-169 -157 0
-170 -158 0
-171 -159 0
-346 -157 0
-347 -158 0
-348 -159 0
-490 -157 0
-491 -158 0
-492 -159 0
-583 -157 0
-584 -158 0
-585 -159 0
-277 -160 0
-278 -161 0
-279 -162 0
-325 -160 0
-326 -161 0
-327 -162 0
-352 -160 0
-353 -161 0
-354 -162 0
-433 -160 0
-434 -161 0
-435 -162 0
-493 -160 0
-494 -161 0
-495 -162 0
-190 -163 0
-191 -164 0
-192 -165 0
-211 -163 0
-212 -164 0
-213 -165 0
-391 -163 0
-392 -164 0
-393 -165 0
-169 -166 0
-170 -167 0
-171 -168 0
-205 -166 0
-206 -167 0
-207 -168 0
-352 -169 0
-353 -170 0
-354 -171 0
-403 -169 0
-404 -170 0
-405 -171 0
-541 -169 0
-542 -170 0
-543 -171 0
-193 -172 0
-194 -173 0
-195 -174 0
-262 -172 0
-263 -173 0
-264 -174 0
-439 -172 0
-440 -173 0
-441 -174 0
-469 -172 0
-470 -173 0
-471 -174 0
-475 -172 0
-476 -173 0
-477 -174 0
-478 -172 0
-479 -173 0
-480 -174 0
-583 -175 0
-584 -176 0
-585 -177 0
-199 -178 0
-200 -179 0
-201 -180 0
-343 -178 0
-344 -179 0
-345 -180 0
-391 -178 0
-392 -179 0
-393 -180 0
-508 -178 0
-509 -179 0
-510 -180 0
-190 -181 0
-191 -182 0
-192 -183 0
-265 -181 0
-266 -182 0
-267 -183 0
-277 -181 0
-278 -182 0
-279 -183 0
-295 -181 0
-296 -182 0
-297 -183 0
-574 -181 0
-575 -182 0
-576 -183 0
-187 -184 0
-188 -185 0
-189 -186 0
-355 -184 0
-356 -185 0
-357 -186 0
-367 -184 0
-368 -185 0
-369 -186 0
-394 -184 0
-395 -185 0
-396 -186 0
-472 -184 0
-473 -185 0
-474 -186 0
-547 -184 0
-548 -185 0
-549 -186 0
-211 -187 0
-212 -188 0
-213 -189 0
-301 -187 0
-302 -188 0
-303 -189 0
-388 -187 0
-389 -188 0
-390 -189 0
-412 -187 0
-413 -188 0
-414 -189 0
-517 -187 0
-518 -188 0
-519 -189 0
-577 -187 0
-578 -188 0
-579 -189 0
-196 -190 0
-197 -191 0
-198 -192 0
-334 -190 0
-335 -191 0
-336 -192 0
-340 -190 0
-341 -191 0
-342 -192 0
-577 -190 0
-578 -191 0
-579 -192 0
-289 -193 0
-290 -194 0
-291 -195 0
-376 -193 0
-377 -194 0
-378 -195 0
-511 -193 0
-512 -194 0
-513 -195 0
-574 -193 0
-575 -194 0
-576 -195 0
-271 -196 0
-272 -197 0
-273 -198 0
-325 -196 0
-326 -197 0
-327 -198 0
-382 -196 0
-383 -197 0
-384 -198 0
-457 -196 0
-458 -197 0
-459 -198 0
-277 -199 0
-278 -200 0
-279 -201 0
-391 -199 0
-392 -200 0
-393 -201 0
-394 -199 0
-395 -200 0
-396 -201 0
-496 -199 0
-497 -200 0
-498 -201 0
-361 -202 0
-362 -203 0
-363 -204 0
-334 -205 0
-335 -206 0
-336 -207 0
-490 -205 0
-491 -206 0
-492 -207 0
-514 -205 0
-515 -206 0
-516 -207 0
-364 -208 0
-365 -209 0
-366 -210 0
-367 -208 0
-368 -209 0
-369 -210 0
-220 -211 0
-221 -212 0
-222 -213 0
-463 -211 0
-464 -212 0
-465 -213 0
-541 -211 0
-542 -212 0
-543 -213 0
-571 -211 0
-572 -212 0
-573 -213 0
-589 -211 0
-590 -212 0
-591 -213 0
-595 -211 0
-596 -212 0
-597 -213 0
-313 -214 0
-314 -215 0
-315 -216 0
-364 -214 0
-365 -215 0
-366 -216 0
-442 -214 0
-443 -215 0
-444 -216 0
-526 -214 0
-527 -215 0
-528 -216 0
-244 -217 0
-245 -218 0
-246 -219 0
-295 -217 0
-296 -218 0
-297 -219 0
-472 -217 0
-473 -218 0
-474 -219 0
-568 -217 0
-569 -218 0
-570 -219 0
-310 -220 0
-311 -221 0
-312 -222 0
-430 -220 0
-431 -221 0
-432 -222 0
-295 -223 0
-296 -224 0
-297 -225 0
-337 -223 0
-338 -224 0
-339 -225 0
-409 -223 0
-410 -224 0
-411 -225 0
-430 -223 0
-431 -224 0
-432 -225 0
-481 -223 0
-482 -224 0
-483 -225 0
-526 -223 0
-527 -224 0
-528 -225 0
-292 -229 0
-293 -230 0
-294 -231 0
-349 -229 0
-350 -230 0
-351 -231 0
-385 -229 0
-386 -230 0
-387 -231 0
-361 -232 0
-362 -233 0
-363 -234 0
-382 -232 0
-383 -233 0
-384 -234 0
-421 -232 0
-422 -233 0
-423 -234 0
-448 -232 0
-449 -233 0
-450 -234 0
-523 -232 0
-524 -233 0
-525 -234 0
-526 -232 0
-527 -233 0
-528 -234 0
-355 -235 0
-356 -236 0
-357 -237 0
-382 -235 0
-383 -236 0
-384 -237 0
-325 -238 0
-326 -239 0
-327 -240 0
-328 -238 0
-329 -239 0
-330 -240 0
-331 -238 0
-332 -239 0
-333 -240 0
-592 -238 0
-593 -239 0
-594 -240 0
-466 -241 0
-467 -242 0
-468 -243 0
-553 -241 0
-554 -242 0
-555 -243 0
-274 -244 0
-275 -245 0
-276 -246 0
-340 -244 0
-341 -245 0
-342 -246 0
-370 -244 0
-371 -245 0
-372 -246 0
-400 -244 0
-401 -245 0
-402 -246 0
-535 -244 0
-536 -245 0
-537 -246 0
-592 -244 0
-593 -245 0
-594 -246 0
-343 -247 0
-344 -248 0
-345 -249 0
-478 -247 0
-479 -248 0
-480 -249 0
-526 -247 0
-527 -248 0
-528 -249 0
-283 -250 0
-284 -251 0
-285 -252 0
-313 -250 0
-314 -251 0
-315 -252 0
-553 -250 0
-554 -251 0
-555 -252 0
-301 -253 0
-302 -254 0
-303 -255 0
-304 -253 0
-305 -254 0
-306 -255 0
-487 -256 0
-488 -257 0
-489 -258 0
-496 -256 0
-497 -257 0
-498 -258 0
-298 -259 0
-299 -260 0
-300 -261 0
-523 -262 0
-524 -263 0
-525 -264 0
-526 -262 0
-527 -263 0
-528 -264 0
-562 -262 0
-563 -263 0
-564 -264 0
-355 -265 0
-356 -266 0
-357 -267 0
-367 -265 0
-368 -266 0
-369 -267 0
-382 -265 0
-383 -266 0
-384 -267 0
-502 -265 0
-503 -266 0
-504 -267 0
-403 -268 0
-404 -269 0
-405 -270 0
-373 -271 0
-374 -272 0
-375 -273 0
-409 -271 0
-410 -272 0
-411 -273 0
-433 -271 0
-434 -272 0
-435 -273 0
-538 -271 0
-539 -272 0
-540 -273 0
-592 -271 0
-593 -272 0
-594 -273 0
-514 -274 0
-515 -275 0
-516 -276 0
-310 -280 0
-311 -281 0
-312 -282 0
-322 -280 0
-323 -281 0
-324 -282 0
-319 -283 0
-320 -284 0
-321 -285 0
-556 -283 0
-557 -284 0
-558 -285 0
-391 -286 0
-392 -287 0
-393 -288 0
-472 -286 0
-473 -287 0
-474 -288 0
-382 -289 0
-383 -290 0
-384 -291 0
-553 -289 0
-554 -290 0
-555 -291 0
-313 -292 0
-314 -293 0
-315 -294 0
-394 -292 0
-395 -293 0
-396 -294 0
-514 -292 0
-515 -293 0
-516 -294 0
-523 -292 0
-524 -293 0
-525 -294 0
-406 -295 0
-407 -296 0
-408 -297 0
-544 -298 0
-545 -299 0
-546 -300 0
-328 -301 0
-329 -302 0
-330 -303 0
-358 -301 0
-359 -302 0
-360 -303 0
-589 -301 0
-590 -302 0
-591 -303 0
-370 -304 0
-371 -305 0
-372 -306 0
-478 -304 0
-479 -305 0
-480 -306 0
-556 -304 0
-557 -305 0
-558 -306 0
-565 -304 0
-566 -305 0
-567 -306 0
-406 -307 0
-407 -308 0
-408 -309 0
-421 -307 0
-422 -308 0
-423 -309 0
-433 -307 0
-434 -308 0
-435 -309 0
-511 -310 0
-512 -311 0
-513 -312 0
-352 -313 0
-353 -314 0
-354 -315 0
-442 -313 0
-443 -314 0
-444 -315 0
-385 -316 0
-386 -317 0
-387 -318 0
-463 -316 0
-464 -317 0
-465 -318 0
-586 -316 0
-587 -317 0
-588 -318 0
-331 -319 0
-332 -320 0
-333 -321 0
-391 -319 0
-392 -320 0
-393 -321 0
-403 -319 0
-404 -320 0
-405 -321 0
-484 -319 0
-485 -320 0
-486 -321 0
-409 -322 0
-410 -323 0
-411 -324 0
-454 -322 0
-455 -323 0
-456 -324 0
-433 -325 0
-434 -326 0
-435 -327 0
-445 -325 0
-446 -326 0
-447 -327 0
-496 -325 0
-497 -326 0
-498 -327 0
-550 -325 0
-551 -326 0
-552 -327 0
-382 -328 0
-383 -329 0
-384 -330 0
-463 -331 0
-464 -332 0
-465 -333 0
-376 -334 0
-377 -335 0
-378 -336 0
-454 -334 0
-455 -335 0
-456 -336 0
-520 -334 0
-521 -335 0
-522 -336 0
-532 -334 0
-533 -335 0
-534 -336 0
-463 -337 0
-464 -338 0
-465 -339 0
-544 -337 0
-545 -338 0
-546 -339 0
-580 -337 0
-581 -338 0
-582 -339 0
-592 -337 0
-593 -338 0
-594 -339 0
-424 -340 0
-425 -341 0
-426 -342 0
-472 -340 0
-473 -341 0
-474 -342 0
-439 -343 0
-440 -344 0
-441 -345 0
-457 -343 0
-458 -344 0
-459 -345 0
-499 -343 0
-500 -344 0
-501 -345 0
-439 -346 0
-440 -347 0
-441 -348 0
-460 -349 0
-461 -350 0
-462 -351 0
-394 -358 0
-395 -359 0
-396 -360 0
-406 -358 0
-407 -359 0
-408 -360 0
-460 -358 0
-461 -359 0
-462 -360 0
-592 -358 0
-593 -359 0
-594 -360 0
-517 -361 0
-518 -362 0
-519 -363 0
-526 -361 0
-527 -362 0
-528 -363 0
-529 -361 0
-530 -362 0
-531 -363 0
-487 -364 0
-488 -365 0
-489 -366 0
-412 -367 0
-413 -368 0
-414 -369 0
-478 -367 0
-479 -368 0
-480 -369 0
-487 -370 0
-488 -371 0
-489 -372 0
-520 -373 0
-521 -374 0
-522 -375 0
-523 -373 0
-524 -374 0
-525 -375 0
-538 -373 0
-539 -374 0
-540 -375 0
-394 -376 0
-395 -377 0
-396 -378 0
-421 -376 0
-422 -377 0
-423 -378 0
-409 -379 0
-410 -380 0
-411 -381 0
-421 -379 0
-422 -380 0
-423 -381 0
-400 -385 0
-401 -386 0
-402 -387 0
-412 -385 0
-413 -386 0
-414 -387 0
-550 -385 0
-551 -386 0
-552 -387 0
-538 -388 0
-539 -389 0
-540 -390 0
-481 -391 0
-482 -392 0
-483 -393 0
-454 -397 0
-455 -398 0
-456 -399 0
-502 -400 0
-503 -401 0
-504 -402 0
-538 -403 0
-539 -404 0
-540 -405 0
-553 -403 0
-554 -404 0
-555 -405 0
-436 -406 0
-437 -407 0
-438 -408 0
-475 -406 0
-476 -407 0
-477 -408 0
-583 -409 0
-584 -410 0
-585 -411 0
-592 -409 0
-593 -410 0
-594 -411 0
-499 -415 0
-500 -416 0
-501 -417 0
-541 -415 0
-542 -416 0
-543 -417 0
-490 -418 0
-491 -419 0
-492 -420 0
-574 -418 0
-575 -419 0
-576 -420 0
-583 -418 0
-584 -419 0
-585 -420 0
-589 -418 0
-590 -419 0
-591 -420 0
-589 -433 0
-590 -434 0
-591 -435 0
-466 -436 0
-467 -437 0
-468 -438 0
-523 -436 0
-524 -437 0
-525 -438 0
-556 -436 0
-557 -437 0
-558 -438 0
-592 -436 0
-593 -437 0
-594 -438 0
-583 -439 0
-584 -440 0
-585 -441 0
-484 -442 0
-485 -443 0
-486 -444 0
-502 -445 0
-503 -446 0
-504 -447 0
-460 -451 0
-461 -452 0
-462 -453 0
-595 -451 0
-596 -452 0
-597 -453 0
-565 -457 0
-566 -458 0
-567 -459 0
-568 -457 0
-569 -458 0
-570 -459 0
-514 -460 0
-515 -461 0
-516 -462 0
-469 -463 0
-470 -464 0
-471 -465 0
-541 -463 0
-542 -464 0
-543 -465 0
-535 -466 0
-536 -467 0
-537 -468 0
-544 -472 0
-545 -473 0
-546 -474 0
-523 -475 0
-524 -476 0
-525 -477 0
-589 -475 0
-590 -476 0
-591 -477 0
-577 -478 0
-578 -479 0
-579 -480 0
-544 -481 0
-545 -482 0
-546 -483 0
-568 -481 0
-569 -482 0
-570 -483 0
-496 -487 0
-497 -488 0
-498 -489 0
-535 -490 0
-536 -491 0
-537 -492 0
-595 -490 0
-596 -491 0
-597 -492 0
-508 -496 0
-509 -497 0
-510 -498 0
-538 -499 0
-539 -500 0
-540 -501 0
-568 -499 0
-569 -500 0
-570 -501 0
-589 -505 0
-590 -506 0
-591 -507 0
-571 -508 0
-572 -509 0
-573 -510 0
-595 -508 0
-596 -509 0
-597 -510 0
-571 -514 0
-572 -515 0
-573 -516 0
-577 -514 0
-578 -515 0
-579 -516 0
-586 -514 0
-587 -515 0
-588 -516 0
-553 -523 0
-554 -524 0
-555 -525 0
-547 -535 0
-548 -536 0
-549 -537 0
-598 -535 0
-599 -536 0
-600 -537 0
-589 -538 0
-590 -539 0
-591 -540 0
-559 -547 0
-560 -548 0
-561 -549 0
-595 -562 0
-596 -563 0
-597 -564 0
-574 -565 0
-575 -566 0
-576 -567 0
